
Gurobi 11.0.0 (win64) logging started Tue Jul 29 13:09:32 2025

Set parameter LogFile to value "C:\Users\mahu123a\Documents\3l-cvrp-heuristic\data/output/3l-cvrp/all-constraints-heuristic-basic/2025-07-29_13-09-31/BinPackLowerBound.log"

Gurobi 11.0.0 (win64) logging started Tue Jul 29 13:09:32 2025

Set parameter LogFile to value "C:\Users\mahu123a\Documents\3l-cvrp-heuristic\data/output/3l-cvrp/all-constraints-heuristic-basic/2025-07-29_13-09-31/BinPackLowerBound.log"

Gurobi 11.0.0 (win64) logging started Tue Jul 29 13:09:32 2025

Set parameter LogFile to value "C:\Users\mahu123a\Documents\3l-cvrp-heuristic\data/output/3l-cvrp/all-constraints-heuristic-basic/2025-07-29_13-09-31/BinPackLowerBound.log"

Gurobi 11.0.0 (win64) logging started Tue Jul 29 13:09:32 2025

Set parameter LogFile to value "C:\Users\mahu123a\Documents\3l-cvrp-heuristic\data/output/3l-cvrp/all-constraints-heuristic-basic/2025-07-29_13-09-31/BinPackLowerBound.log"
